413,423
601,611
187,197
131,141
41,51
310,320
878,888
993,1003
288,298
29,39
235,245
998,1008
164,174
978,988
958,968
426,436
934,944
717,727
122,132
39,49
191,201
458,468
694,704
476,486
182,192
509,519
39,49
579,589
354,364
125,135
839,849
285,295
930,940
55,65
397,407
509,519
188,198
68,78
786,796
112,122
175,185
562,572
679,689
500,510
429,439
725,735
615,625
709,719
417,427
680,690
845,855
866,876
938,948
376,386
568,578
45,55
350,360
65,75
747,757
49,59
809,819
212,222
215,225
379,389
301,311
299,309
35,45
163,173
312,322
426,436
474,484
14,24
24,34
413,423
412,422

2000
7011
2538
6098
4489
3885
1237
255
913
347
